(declare-const X String)
; /filename=[^\n]*\x2eskm/i
(assert (not (str.in_re X (re.++ (str.to_re "/filename=") (re.* (re.comp (str.to_re "\u{a}"))) (str.to_re ".skm/i\u{a}")))))
; \x22StarLogger\x22User-Agent\x3AJMailUser-Agent\x3A
(assert (not (str.in_re X (str.to_re "\u{22}StarLogger\u{22}User-Agent:JMailUser-Agent:\u{a}"))))
(check-sat)

(exit)
